1203.0 13069.0 3101.0 
1203.0 13050.0 3114.0 
1139.0 13466.0 3637.0 
1203.0 13069.0 3101.0 
1145.0 13272.0 3257.0 
1140.0 13618.0 3255.0 
1142.0 13587.0 3337.0 
1247.0 13627.0 2833.0 
1171.0 13154.0 3153.0 
1157.0 13429.0 3231.0 
1171.0 13201.0 3138.0 
1179.0 13074.0 2901.0 
1189.0 13212.0 2885.0 
1247.0 13632.0 2807.0 
1118.0 13703.0 4060.0 
1247.0 13632.0 2807.0 
1153.0 13108.0 3295.0 
1255.0 13184.0 2836.0 
1138.0 13566.0 3419.0 
1163.0 13313.0 3159.0 
1203.0 13075.0 2900.0 
1140.0 13553.0 3457.0 
1153.0 13108.0 3295.0 
1153.0 13138.0 3279.0 
1231.0 13223.0 2875.0 
1189.0 13212.0 2885.0 
1169.0 13361.0 3119.0 
1249.0 13174.0 2899.0 
1113.0 13727.0 3688.0 
1166.0 13308.0 3161.0 
1231.0 13223.0 2875.0 
